nNurses = 197;
nHours = 29;
minHours = 7;
maxHours = 8;
maxConsec = 7;
maxPresence = 18;
demand = [47, 49, 44, 48, 44, 49, 45, 41, 38, 40, 39, 34, 38, 40, 42, 37, 37, 41, 36, 32, 29, 33, 31, 28, 29, 31, 26, 25, 22];
